NAME: Random_70_5
ELLAPSED_TIME_(ms): 0
TOUR_SIZE: 1820.4467
TOUR_SECTION
0
31
42
28
43
11
9
5
52
2
14
17
39
36
41
46
64
33
38
47
21
51
1
4
69
8
34
3
7
68
25
53
66
35
10
18
32
20
16
12
48
27
13
67
44
29
24
40
63
37
45
15
30
19
54
50
6
56
65
23
26
62
60
22
57
58
61
49
59
55
0
EOF
